51588
129,211,331,366,417,418,459,473,599,609,674,740,763,765,775,830,836,959,968,983,1029,1122,1248,1361,1457,1479,1569,1702,2055,2086,2138,2170,2236,2244,2295,2487,2494,2504,2509,2662,2687,2707,2744,2831,2844,2896,2898,2957,2966,2987,3021,3032,3146,3267,3346,3364,3675,3689,3855,3882,3890,4131,4182,4226,4365,4428,4436,4444,4648,4723,4724,4767,4768,5064,5079,5097,5158,5280,5476,5722,5864,5886,5893,5991,6096,6119,6273,6283,6307,6362,6376,6543,6630,6645,6774,6871,6915,7068,7117,7130,7241,7259,7425,7450,7722,7810,7875,7958,7965,8109,8111,8283,8302,8310,8428,8500,8557,8579,8580,8709,8805,9058,9324,9342,9749,9828,9970
